Route #1: 9 62 61 30 57 3
Route #2: 60 64 40 34 6 36 39
Route #3: 53 44 42 46 4 14 50
Route #4: 11 35 49 1 19 20
Route #5: 65 37 23 8 32 51
Route #6: 43 27 10 29 59 24 7 38
Route #7: 17 16 41 66 2 26 47
Route #8: 33 18 31 45 52 22 54 55
Route #9: 63 48 25 21 5 28
Route #10: 13 56 15 58 12
Cost 1101